NAME : DD50.1600914.tour
COMMENT : Cost = 0_1600914
COMMENT : Found by LKH [Keld Helsgaun] Sun Apr 23 15:14:36 2017
TYPE : TOUR
DIMENSION : 103
TOUR_SECTION
1
38
39
89
88
7
57
43
2
32
82
52
24
93
25
74
29
79
75
19
69
20
70
41
91
31
81
51
6
56
101
103
3
10
60
16
53
66
28
78
42
92
14
64
35
85
36
86
9
59
17
21
67
15
65
71
4
54
18
68
46
96
44
94
30
80
102
5
55
11
23
61
8
58
49
99
73
26
76
45
12
62
95
40
27
77
90
33
83
13
63
47
97
22
34
72
84
48
98
37
87
50
100
-1
EOF
